This is Ipopt version 3.14.17, running with linear solver MUMPS 5.7.3.

Number of nonzeros in equality constraint Jacobian...:      830
Number of nonzeros in inequality constraint Jacobian.:      184
Number of nonzeros in Lagrangian Hessian.............:     1483

Total number of variables............................:      272
                     variables with only lower bounds:        0
                variables with lower and upper bounds:      236
                     variables with only upper bounds:        0
Total number of equality constraints.................:      200
Total number of inequality constraints...............:       80
        inequality constraints with only lower bounds:       38
   inequality constraints with lower and upper bounds:        0
        inequality constraints with only upper bounds:       42

iter    objective    inf_pr   inf_du lg(mu)  ||d||  lg(rg) alpha_du alpha_pr  ls
   0  1.6433687e+03 2.42e+00 1.00e+02  -1.0 0.00e+00    -  0.00e+00 0.00e+00   0
   1  1.1395594e+04 2.18e+00 8.84e+01  -1.0 1.30e+00    -  1.50e-02 9.60e-02f  1
   2  2.5845757e+04 6.13e-01 1.33e+01  -1.0 1.07e+00    -  7.01e-02 7.19e-01f  1
   3  9.6248207e+03 4.62e-01 4.00e+01  -1.0 3.52e-01    -  1.31e-01 2.46e-01f  1
   4  7.4508464e+03 3.66e-01 3.15e+01  -1.0 1.04e+00    -  2.18e-01 2.09e-01f  1
   5  6.6388876e+03 7.67e-02 6.06e+00  -1.0 6.23e-01    -  8.34e-01 7.94e-01h  1
   6  7.1566438e+03 1.28e-02 4.09e+01  -1.0 9.70e-01    -  9.90e-01 9.34e-01h  1
   7  1.4447872e+04 5.73e-02 1.06e+03  -1.0 9.71e+01    -  7.36e-01 4.79e-01f  1
   8  2.4868183e+04 1.60e-02 9.12e+03  -1.0 4.68e+03    -  2.02e-01 9.54e-01f  1
   9  2.4582982e+04 7.11e-03 9.70e+03  -1.0 4.21e-02   4.0 9.90e-01 5.27e-01h  1
iter    objective    inf_pr   inf_du lg(mu)  ||d||  lg(rg) alpha_du alpha_pr  ls
  10  2.4796835e+04 4.55e-03 4.63e+03  -1.0 2.21e-02   3.5 9.90e-01 3.52e-01h  1
  11  2.5582396e+04 2.62e-04 4.30e+02  -1.0 2.59e-02   3.0 1.00e+00 9.05e-01h  1
  12  2.5073781e+04 7.79e-05 9.98e+01  -1.0 3.23e-02   2.6 1.00e+00 1.00e+00f  1
  13  3.4489376e+04 3.28e-04 1.35e+03  -1.0 1.40e+03    -  6.65e-01 1.00e+00f  1
  14  6.9814142e+04 1.91e-03 2.07e+03  -1.0 4.02e+03    -  6.50e-01 1.00e+00f  1
  15  6.9726091e+04 5.38e-05 1.09e+01  -1.0 7.04e-03   3.0 1.00e+00 1.00e+00h  1
  16  1.2855661e+05 3.21e-03 7.65e+02  -1.0 4.61e+03    -  7.14e-01 1.00e+00f  1
  17  4.0045048e+05 3.04e-03 5.72e+03  -1.0 4.44e+04    -  2.71e-01 1.00e+00f  1
  18  4.0040584e+05 1.35e-05 1.17e+03  -1.0 1.43e-02   3.4 9.02e-01 1.00e+00h  1
  19  4.0037329e+05 5.20e-07 2.31e+00  -1.0 2.63e-03   2.9 1.00e+00 1.00e+00f  1
iter    objective    inf_pr   inf_du lg(mu)  ||d||  lg(rg) alpha_du alpha_pr  ls
  20  4.0024696e+05 1.19e-07 8.88e+02  -1.7 1.01e-03   2.5 8.01e-01 1.00e+00h  1
  21  3.9994703e+05 8.72e-07 3.72e-01  -1.7 2.85e-03   2.0 1.00e+00 1.00e+00f  1
  22  2.2642870e+05 6.39e-03 3.67e+02  -2.5 1.79e+05    -  3.71e-01 2.51e-01F  1
  23  2.2619060e+05 4.89e-04 3.20e+02  -2.5 2.19e-02   1.5 9.02e-01 1.00e+00h  1
  24  2.2562613e+05 1.57e-05 5.48e+01  -2.5 4.33e-03   1.0 9.85e-01 1.00e+00h  1
  25  2.2501630e+05 9.06e-06 5.79e+02  -2.5 8.73e-03   0.6 6.45e-01 1.00e+00f  1
  26  2.2499447e+05 1.57e-08 4.25e-02  -2.5 4.49e-04   1.9 1.00e+00 1.00e+00h  1
  27  7.7614796e+04 2.47e-04 1.21e+03  -3.8 1.23e+05    -  5.27e-01 1.11e-01f  1
  28  7.7533285e+04 2.06e-06 6.35e+00  -3.8 1.39e-03   1.4 9.97e-01 1.00e+00h  1
  29  7.7280976e+04 3.52e-06 7.26e-02  -3.8 2.14e-03   0.9 1.00e+00 1.00e+00h  1
iter    objective    inf_pr   inf_du lg(mu)  ||d||  lg(rg) alpha_du alpha_pr  ls
  30  2.6610881e+04 4.27e-04 6.59e+02  -3.8 1.56e+05    -  9.83e-02 2.22e-02f  1
  31  9.1959484e+03 1.95e-03 1.94e+03  -3.8 2.03e+04    -  6.11e-01 8.53e-02f  1
  32  4.5396924e+03 3.32e-03 1.17e+03  -3.8 2.56e+03    -  5.65e-01 2.95e-01h  1
  33  4.5340610e+03 6.33e-04 5.01e+01  -3.8 4.60e-02   0.5 1.00e+00 7.72e-01h  1
  34  2.4513226e+03 9.58e-04 7.83e+01  -3.8 4.44e+02    -  9.25e-01 5.24e-01f  1
  35  1.7793394e+03 1.96e-03 1.30e-01  -3.8 8.40e+01    -  9.99e-01 1.00e+00f  1
  36  2.9556164e+03 6.92e-04 9.50e+02  -3.8 1.18e+03    -  3.47e-02 1.00e+00h  1
  37  2.9557403e+03 8.48e-06 1.09e+01  -3.8 2.23e-02   2.7 1.00e+00 1.00e+00h  1
  38  2.9559200e+03 3.20e-08 2.24e-02  -3.8 1.31e-04   2.2 1.00e+00 1.00e+00h  1
  39  1.8056783e+03 3.66e-06 6.99e+01  -3.8 1.53e+04    -  1.00e+00 7.47e-02f  1
iter    objective    inf_pr   inf_du lg(mu)  ||d||  lg(rg) alpha_du alpha_pr  ls
  40  1.8236832e+03 2.28e-04 2.02e+00  -3.8 8.91e+00    -  8.93e-01 1.00e+00f  1
  41  1.8424030e+03 3.64e-06 3.99e-02  -3.8 2.05e+01    -  1.00e+00 1.00e+00h  1
  42  1.8654095e+03 2.10e-06 1.21e-03  -3.8 1.81e+01    -  1.00e+00 1.00e+00h  1
  43  3.3315963e+01 2.21e-04 2.01e+00  -5.7 8.50e+01    -  9.21e-01 9.96e-01f  1
  44  2.6089458e+01 1.42e-04 8.28e-01  -5.7 1.01e+00    -  9.72e-01 1.00e+00h  1
  45  2.3763194e+01 8.46e-04 9.75e-05  -5.7 2.93e-01    -  1.00e+00 1.00e+00h  1
  46  2.3613940e+01 1.01e-07 5.82e-06  -5.7 5.28e-02    -  1.00e+00 1.00e+00h  1
  47  5.5773828e+00 1.24e-04 1.29e+01  -8.6 1.06e+00    -  9.07e-01 8.16e-01h  1
  48  3.4730806e+00 7.16e-05 3.50e+01  -8.6 1.77e-01    -  1.00e+00 7.52e-01h  1
  49  3.1480306e+00 2.24e-05 1.07e+01  -8.6 3.98e-02    -  7.69e-01 7.51e-01h  1
iter    objective    inf_pr   inf_du lg(mu)  ||d||  lg(rg) alpha_du alpha_pr  ls
  50  3.0813064e+00 5.53e-07 8.20e+01  -8.6 9.79e-03    -  3.73e-01 1.00e+00h  1
  51  3.0812702e+00 7.84e-12 1.76e-03  -8.6 3.25e-05   1.7 1.00e+00 1.00e+00h  1
  52  3.0745505e+00 2.55e-08 3.71e-04  -8.6 1.57e-03    -  1.00e+00 1.00e+00h  1
  53  3.0740200e+00 9.27e-10 5.71e+01  -8.6 2.20e-03    -  5.96e-01 1.00e+00h  1
  54  3.0738630e+00 2.04e-11 8.64e-05  -8.6 2.02e-06   1.3 1.00e+00 1.00e+00h  1
  55  3.0602272e+00 1.80e-09 1.78e+01  -8.6 8.57e-03    -  8.74e-01 1.00e+00h  1
  56  3.0601377e+00 1.62e-11 1.18e+02  -8.6 1.84e-05   0.8 2.61e-01 1.00e+00h  1
  57  3.0603006e+00 3.78e-10 2.17e+02  -8.6 9.10e-05   0.3 1.62e-01 1.00e+00h  1
  58  3.0602838e+00 5.76e-12 2.20e+02  -8.6 1.82e-05   0.7 3.87e-01 1.00e+00h  1
  59  3.0601713e+00 3.79e-13 5.53e+01  -8.6 2.25e-06   1.2 8.47e-01 1.00e+00h  1
iter    objective    inf_pr   inf_du lg(mu)  ||d||  lg(rg) alpha_du alpha_pr  ls
  60  3.0595827e+00 2.07e-10 1.56e+02  -8.6 3.61e-05   0.7 2.08e-01 1.00e+00h  1
  61  3.0595249e+00 2.00e-13 1.26e-04  -8.6 1.24e-06   2.0 1.00e+00 1.00e+00h  1
In iteration 61, 1 Slack too small, adjusting variable bound
  62  3.0183079e+00 3.25e-10 1.36e+02  -8.6 1.01e+00    -  1.00e+00 3.72e-02h  1
  63  2.8670954e+00 1.16e-08 1.23e-03  -8.6 8.83e-02    -  1.00e+00 1.00e+00h  1
  64  2.9038694e+00 4.15e-09 4.64e+01  -8.6 4.25e-02    -  1.00e+00 6.72e-01h  1
  65  2.9111449e+00 3.11e-09 1.06e+02  -8.6 1.93e-02    -  1.00e+00 2.50e-01f  3
  66  2.9337194e+00 2.82e-10 9.01e-05  -8.6 1.48e-02    -  1.00e+00 1.00e+00h  1
  67  2.9357903e+00 7.12e-13 2.72e-06  -8.6 9.44e-04    -  1.00e+00 1.00e+00h  1
  68  2.9358630e+00 3.16e-14 2.13e-06  -8.6 1.46e-04    -  1.00e+00 1.00e+00h  1
  69  2.9357457e+00 1.06e-14 2.18e-06  -8.6 1.25e-05    -  1.00e+00 1.00e+00h  1
iter    objective    inf_pr   inf_du lg(mu)  ||d||  lg(rg) alpha_du alpha_pr  ls
  70  2.9356600e+00 1.77e-14 2.22e-06  -8.6 1.13e-05    -  1.00e+00 1.00e+00h  1
  71  2.9356505e+00 2.41e-14 7.07e+01  -8.6 1.15e-05    -  1.00e+00 5.00e-01h  2
  72  2.9355934e+00 4.37e-14 2.29e-06  -8.6 1.16e-05    -  1.00e+00 1.00e+00h  1
  73  2.9355408e+00 5.00e-14 2.35e-06  -8.6 1.19e-05    -  1.00e+00 1.00e+00h  1
  74  2.9355236e+00 2.83e-14 2.40e-06  -8.6 1.22e-05    -  1.00e+00 1.00e+00h  1
  75  2.9353380e+00 2.99e-14 2.45e-06  -8.6 1.24e-05    -  1.00e+00 1.00e+00h  1
  76  2.9353421e+00 2.77e-14 2.51e-06  -8.6 1.27e-05    -  1.00e+00 1.00e+00h  1
  77  2.9352747e+00 2.08e-14 2.56e-06  -8.6 1.30e-05    -  1.00e+00 1.00e+00h  1
  78  2.9351866e+00 2.42e-14 2.62e-06  -8.6 1.33e-05    -  1.00e+00 1.00e+00h  1
  79  2.9351805e+00 3.85e-14 2.69e-06  -8.6 1.36e-05    -  1.00e+00 1.00e+00h  1
iter    objective    inf_pr   inf_du lg(mu)  ||d||  lg(rg) alpha_du alpha_pr  ls
  80  2.9349261e+00 1.73e-14 2.75e-06  -8.6 1.39e-05    -  1.00e+00 1.00e+00h  1
  81  2.9347802e+00 2.19e-14 2.82e-06  -8.6 1.43e-05    -  1.00e+00 1.00e+00h  1
  82  2.9347732e+00 2.39e-14 7.07e+01  -8.6 1.46e-05    -  1.00e+00 5.00e-01h  2
  83  2.9346711e+00 2.30e-14 2.91e-06  -8.6 1.48e-05    -  1.00e+00 1.00e+00h  1
  84  2.9345408e+00 2.66e-14 1.41e+02  -8.6 1.52e-05    -  1.00e+00 2.44e-04h 13
  85  2.9345313e+00 3.33e-14 1.41e+02  -8.6 1.52e-05    -  1.00e+00 1.53e-05h 17
  86  2.9345157e+00 3.34e-14 1.41e+02  -8.6 1.52e-05    -  1.00e+00 4.77e-07h 22
  87  2.9345932e+00 2.90e-14 2.99e-06  -8.6 1.52e-05    -  1.00e+00 1.00e+00s 25
Cannot call restoration phase at point that is almost feasible (violation 2.897682e-14).
Abort in line search due to no other fall back.

Number of Iterations....: 87

                                   (scaled)                 (unscaled)
Objective...............:   1.0868027816238279e-05    2.9345932097639889e+00
Dual infeasibility......:   2.9910870415756296e-06    8.0765561796832752e-01
Constraint violation....:   2.7331617712041584e-14    2.8976820942716586e-14
Variable bound violation:   0.0000000000000000e+00    0.0000000000000000e+00
Complementarity.........:   2.5059066433341554e-09    6.7664683456581721e-04
Overall NLP error.......:   2.1408650478821912e-06    8.0765561796832752e-01


Number of objective function evaluations             = 168
Number of objective gradient evaluations             = 89
Number of equality constraint evaluations            = 168
Number of inequality constraint evaluations          = 168
Number of equality constraint Jacobian evaluations   = 89
Number of inequality constraint Jacobian evaluations = 89
Number of Lagrangian Hessian evaluations             = 88
Total seconds in IPOPT                               = 0.106

EXIT: Error in step computation!
